Route #1: 28 12 9 38 50 22 23 5 40
Route #2: 45 41 6 29 37 42 47
Route #3: 25 19 18 7 15 24 53 52 1
Route #4: 27 16 35 21 26 4 39
Route #5: 43 10 14 51 44 17 8 46
Route #6: 13 33 2 54 30 34 20 31 55 11 49
Route #7: 3 36 32 48
cost 749.91748046875